8479
8094
8011
4162
5981
7646
2388
4384
7209
5783
7813
6023
1163
7089
4511
6752
2818
449
4443
7088
7768
6189
4363
10045
4532
6871
8915
5140
9753
626
7346
9249
3700
1373
7931
492
1603
3924
4838
4221
2776
2595
10022
6899
3279
4030
3653
1799
9458
8504
8161
